model/logs/speck32_64_9_rounds.txt
This log correspond to differential-linear distinguisher 3


% Generated FlatZinc statistics:
%%%mzn-stat: paths=0
%%%mzn-stat: flatIntVars=1065
%%%mzn-stat: flatFloatVars=807
%%%mzn-stat: flatIntConstraints=2347
%%%mzn-stat: flatFloatConstraints=1053
%%%mzn-stat: evaluatedReifiedConstraints=221
%%%mzn-stat: evaluatedHalfReifiedConstraints=79
%%%mzn-stat: eliminatedLinearConstraints=1
%%%mzn-stat: method="minimize"
%%%mzn-stat: flatTime=0.20603
%%%mzn-stat-end
%%%mzn-stat: objective=34.5063491076
%%%mzn-stat: objectiveBound=1.34797743326
%%%mzn-stat: nodes=0
%%%mzn-stat: solveTime=2.5704
%%%mzn-stat-end
Differential Part: Round 0
[0, 0, 0, 0, 0, 0, 0, 0, 0, 0, 0, 0, 1, 0, 0, 0][0, 0, 0, 1, 0, 0, 0, 0, 0, 0, 0, 0, 0, 0, 0, 0]
Differential Part: Round 1
[0, 0, 0, 0, 0, 0, 0, 0, 0, 0, 0, 0, 0, 0, 0, 0][0, 1, 0, 0, 0, 0, 0, 0, 0, 0, 0, 0, 0, 0, 0, 0]
Differential Part: Round 2
[0, 1, 0, 0, 0, 0, 0, 0, 0, 0, 0, 0, 0, 0, 0, 0][0, 1, 0, 0, 0, 0, 0, 0, 0, 0, 0, 0, 0, 0, 0, 1]
Differential Part: Round 3
[1, 1, 0, 0, 0, 0, 0, 0, 1, 1, 1, 1, 1, 1, 1, 1][1, 1, 0, 0, 0, 0, 0, 0, 1, 1, 1, 1, 1, 0, 1, 0]
Differential Part: Round 4
[1, 1, 1, 1, 1, 1, 0, 0, 0, 0, 0, 1, 1, 0, 0, 1][1, 1, 1, 1, 1, 1, 1, 1, 1, 1, 1, 1, 0, 0, 1, 0]
Differential-Linear Part: Round 0
[1.0, 1.0, 1.0, 1.0, 1.0, 1.0, -1.0, -1.0, -1.0, -1.0, -1.0, 1.0, 1.0, -1.0, -1.0, 1.0][1.0, 1.0, 1.0, 1.0, 1.0, 1.0, 1.0, 1.0, 1.0, 1.0, 1.0, 1.0, -1.0, -1.0, 1.0, -1.0]
Differential-Linear Part: Round 1
[0.0, -0.75, 0.5, 1.164153218269348e-10, -4.656612873077393e-10, -0.984375, 0.96875, 0.9375, 0.875, 0.75, 0.5, 0.0, 0.5, 0.0, 1.0, -1.0][-0.0, 0.75, -0.5, -1.164153218269348e-10, 4.656612873077393e-10, 0.984375, -0.96875, -0.9375, -0.875, -0.75, 0.5, 0.0, -0.5, 0.0, -1.0, 1.0]
Differential-Linear Part: Round 2
[0.0, -0.03416753525614824, 0.0, -4.910971022449335e-12, 0.0, -0.6495510337835537, -0.3300247553807717, 0.0, -0.03000679845043069, -0.04026085138128378, -2.053304820041881e-11, 0.0, 0.1172790527342461, -3.337183502628849e-13, 0.0, -0.875][0.0, -1.193302232986107e-11, 0.0, 2.41357299883702e-12, 0.0, -0.6089540941720816, -0.2887716609581752, 0.0, 0.01500339922521439, 0.0, -1.437314183853414e-11, 0.0, 0.1172790527342461, 3.337183502628849e-13, 0.0, 0.65625]
Linear Part: Round 0
[0, 0, 0, 0, 0, 1, 0, 0, 0, 0, 0, 0, 0, 0, 0, 0][0, 0, 0, 0, 0, 0, 0, 0, 0, 0, 0, 0, 0, 0, 0, 0]
Linear Part: Round 1
[0, 0, 0, 0, 0, 0, 0, 0, 0, 0, 1, 0, 1, 1, 0, 0][0, 0, 0, 0, 0, 0, 0, 0, 0, 0, 1, 0, 0, 0, 0, 0]
Linear Part: Round 2
[0, 0, 0, 0, 0, 0, 0, 0, 1, 0, 0, 0, 0, 0, 0, 1][0, 1, 0, 0, 0, 0, 0, 0, 1, 0, 0, 0, 0, 0, 0, 1]
Linear Part: Round 3
[0, 0, 0, 0, 1, 0, 0, 1, 0, 0, 0, 0, 0, 0, 0, 0][0, 0, 0, 0, 1, 0, 1, 0, 0, 0, 0, 0, 0, 0, 0, 1]

Differential Probability: 24
Differential-Linear Probability: 0.6495510337835537
Linear Probability: 5
Total Number of Rounds:9
Total Probability:-34.62248521541274
----------
%%%mzn-stat: objective=32.5064845255
%%%mzn-stat: objectiveBound=1.52936999289
%%%mzn-stat: nodes=5902
%%%mzn-stat: openNodes=5269
%%%mzn-stat: solveTime=331.3428
%%%mzn-stat-end
Differential Part: Round 0
[0, 0, 0, 0, 0, 0, 0, 0, 0, 0, 0, 0, 1, 0, 0, 0][0, 0, 0, 1, 0, 0, 0, 0, 0, 0, 0, 0, 0, 0, 0, 0]
Differential Part: Round 1
[0, 0, 0, 0, 0, 0, 0, 0, 0, 0, 0, 0, 0, 0, 0, 0][0, 1, 0, 0, 0, 0, 0, 0, 0, 0, 0, 0, 0, 0, 0, 0]
Differential Part: Round 2
[0, 1, 0, 0, 0, 0, 0, 0, 0, 0, 0, 0, 0, 0, 0, 0][0, 1, 0, 0, 0, 0, 0, 0, 0, 0, 0, 0, 0, 0, 0, 1]
Differential Part: Round 3
[0, 1, 0, 0, 0, 0, 0, 0, 1, 0, 1, 1, 1, 1, 1, 1][0, 1, 0, 0, 0, 0, 0, 0, 1, 0, 1, 1, 1, 0, 1, 0]
Differential Part: Round 4
[1, 1, 1, 1, 1, 1, 0, 1, 0, 0, 0, 1, 1, 0, 0, 1][1, 1, 1, 1, 1, 1, 1, 1, 1, 1, 1, 1, 0, 0, 0, 0]
Differential-Linear Part: Round 0
[1.0, 1.0, 1.0, 1.0, 1.0, 1.0, -1.0, 1.0, -1.0, -1.0, -1.0, 1.0, 1.0, -1.0, -1.0, 1.0][1.0, 1.0, 1.0, 1.0, 1.0, 1.0, 1.0, 1.0, 1.0, 1.0, 1.0, 1.0, -1.0, -1.0, -1.0, -1.0]
Differential-Linear Part: Round 1
[0.0, -0.7500000000000112, 0.5000000000000047, 0.0, 0.0, -0.98437500000001, 0.9687500000000075, 0.9375000000000089, 0.8750000000000071, 0.7500000000000044, 0.5000000000000011, 0.0, 0.5000000000000006, 0.0, 1.0, -1.0][0.0, 0.750000000000018, -0.500000000000012, 0.0, 0.0, 0.9843750000000127, -0.9687500000000124, -0.937500000000014, -0.8749999999999998, -0.7499999999999998, 0.5, 0.0, 0.5000000000000004, 0.0, -1.0, 1.0]
Differential-Linear Part: Round 2
[0.0, -0.03416725849569629, 0.0, 0.0, 0.0, -0.6494573101009532, -0.3298373552434069, 0.0, -0.02878042822703689, -0.04474586248397865, 0.0, 0.0, -0.1172790527343825, 0.0, 0.0, -0.8750000000000071][0.0, 0.0, 0.0, 0.0, 0.0, -0.6088662282196527, -0.288607685837981, 0.0, 0.01439021411351844, 0.0, 0.0, 0.0, -0.1172790527343825, 0.0, 0.0, 0.6562500000000211]
Linear Part: Round 0
[0, 0, 0, 0, 0, 1, 0, 0, 0, 0, 0, 0, 0, 0, 0, 0][0, 0, 0, 0, 0, 0, 0, 0, 0, 0, 0, 0, 0, 0, 0, 0]
Linear Part: Round 1
[0, 0, 0, 0, 0, 0, 0, 0, 0, 0, 1, 0, 1, 1, 0, 0][0, 0, 0, 0, 0, 0, 0, 0, 0, 0, 1, 0, 0, 0, 0, 0]
Linear Part: Round 2
[0, 0, 0, 0, 0, 0, 0, 0, 1, 0, 0, 0, 0, 0, 0, 1][0, 1, 0, 0, 0, 0, 0, 0, 1, 0, 0, 0, 0, 0, 0, 1]
Linear Part: Round 3
[0, 0, 0, 0, 1, 0, 0, 1, 0, 0, 0, 0, 0, 0, 0, 0][0, 0, 0, 0, 1, 0, 1, 0, 0, 0, 0, 0, 0, 0, 0, 1]

Differential Probability: 22
Differential-Linear Probability: 0.6494573101009532
Linear Probability: 5
Total Number of Rounds:9
Total Probability:-32.62269339681969
----------
%%%mzn-stat: objective=31.4966700229
%%%mzn-stat: objectiveBound=1.52936999289
%%%mzn-stat: nodes=8003
%%%mzn-stat: openNodes=7073
%%%mzn-stat: solveTime=409.9028
%%%mzn-stat-end
Differential Part: Round 0
[0, 0, 0, 0, 0, 0, 0, 0, 0, 0, 0, 0, 1, 0, 0, 0][0, 0, 0, 1, 0, 0, 0, 0, 0, 0, 0, 0, 0, 0, 0, 0]
Differential Part: Round 1
[0, 0, 0, 0, 0, 0, 0, 0, 0, 0, 0, 0, 0, 0, 0, 0][0, 1, 0, 0, 0, 0, 0, 0, 0, 0, 0, 0, 0, 0, 0, 0]
Differential Part: Round 2
[0, 1, 0, 0, 0, 0, 0, 0, 0, 0, 0, 0, 0, 0, 0, 0][0, 1, 0, 0, 0, 0, 0, 0, 0, 0, 0, 0, 0, 0, 0, 1]
Differential Part: Round 3
[0, 1, 0, 0, 0, 0, 0, 0, 1, 1, 1, 1, 1, 1, 1, 1][0, 1, 0, 0, 0, 0, 0, 0, 1, 1, 1, 1, 1, 0, 1, 0]
Differential Part: Round 4
[0, 1, 1, 1, 1, 1, 1, 0, 0, 0, 0, 1, 1, 0, 0, 1][0, 1, 1, 1, 1, 1, 0, 1, 1, 1, 1, 1, 0, 0, 0, 0]
Differential-Linear Part: Round 0
[-1.0, 1.0, 1.0, 1.0, 1.0, 1.0, 1.0, -1.0, -1.0, -1.0, -1.0, 1.0, 1.0, -1.0, -1.0, 1.0][-1.0, 1.0, 1.0, 1.0, 1.0, 1.0, -1.0, 1.0, 1.0, 1.0, 1.0, 1.0, -1.0, -1.0, -1.0, -1.0]
Differential-Linear Part: Round 1
[0.0, -0.75, 0.5, 0.0, 0.0, 0.0, 0.0, -0.9375, 0.875, 0.75, 0.5, 0.0, 0.0, 1.0, -1.0, -1.0][0.0, 0.75, -0.5, 0.0, 0.0, 0.0, 0.0, 0.9375, -0.875, -0.75, 0.5, 0.0, 0.0, 1.0, -1.0, 1.0]
Differential-Linear Part: Round 2
[0.0, -0.04279965925024805, 0.0, 0.0, 0.0, 0.0, 0.0, 0.0, -0.02799171208211217, -0.04763030984355406, 0.0, 0.0, 0.0, 0.0, 0.0, -0.875][0.0, 0.0, 0.0, 0.0, 0.0, 0.0, 0.0, 0.0, 0.01399585604105609, 0.0, 0.0, 0.0, 0.0, 0.0, 0.0, 0.65625]
Linear Part: Round 0
[0, 0, 0, 0, 0, 0, 0, 0, 0, 0, 0, 0, 0, 0, 0, 0][0, 0, 0, 0, 0, 0, 0, 0, 0, 0, 0, 0, 0, 0, 0, 1]
Linear Part: Round 1
[0, 0, 0, 0, 0, 0, 0, 0, 0, 0, 0, 0, 0, 1, 0, 0][0, 0, 0, 0, 0, 0, 0, 0, 0, 0, 0, 0, 0, 1, 0, 0]
Linear Part: Round 2
[0, 0, 1, 0, 1, 1, 0, 0, 0, 0, 0, 1, 0, 0, 0, 0][0, 0, 1, 0, 0, 0, 0, 0, 0, 0, 0, 1, 0, 0, 0, 0]
Linear Part: Round 3
[0, 0, 1, 1, 0, 0, 0, 1, 0, 1, 1, 1, 0, 0, 0, 0][0, 0, 0, 0, 0, 0, 0, 1, 0, 0, 0, 0, 0, 0, 0, 0]

Differential Probability: 23
Differential-Linear Probability: 0.65625
Linear Probability: 4
Total Number of Rounds:9
Total Probability:-31.60768257722124
----------
%%%mzn-stat: objective=29.4966700229
%%%mzn-stat: objectiveBound=3.10934537564
%%%mzn-stat: nodes=10148
%%%mzn-stat: openNodes=7971
%%%mzn-stat: solveTime=510.0494
%%%mzn-stat-end
Differential Part: Round 0
[0, 0, 0, 0, 0, 0, 0, 0, 0, 0, 0, 0, 1, 0, 0, 0][0, 0, 0, 1, 0, 0, 0, 0, 0, 0, 0, 0, 0, 0, 0, 0]
Differential Part: Round 1
[0, 0, 0, 0, 0, 0, 0, 0, 0, 0, 0, 0, 0, 0, 0, 0][0, 1, 0, 0, 0, 0, 0, 0, 0, 0, 0, 0, 0, 0, 0, 0]
Differential Part: Round 2
[0, 1, 0, 0, 0, 0, 0, 0, 0, 0, 0, 0, 0, 0, 0, 0][0, 1, 0, 0, 0, 0, 0, 0, 0, 0, 0, 0, 0, 0, 0, 1]
Differential Part: Round 3
[0, 1, 0, 0, 0, 0, 0, 0, 1, 0, 1, 1, 1, 1, 1, 1][0, 1, 0, 0, 0, 0, 0, 0, 1, 0, 1, 1, 1, 0, 1, 0]
Differential Part: Round 4
[1, 1, 1, 1, 1, 1, 1, 0, 0, 0, 0, 1, 1, 0, 0, 1][1, 1, 1, 1, 1, 1, 0, 0, 1, 1, 1, 1, 0, 0, 0, 0]
Differential-Linear Part: Round 0
[1.0, 1.0, 1.0, 1.0, 1.0, 1.0, 1.0, -1.0, -1.0, -1.0, -1.0, 1.0, 1.0, -1.0, -1.0, 1.0][1.0, 1.0, 1.0, 1.0, 1.0, 1.0, -1.0, -1.0, 1.0, 1.0, 1.0, 1.0, -1.0, -1.0, -1.0, -1.0]
Differential-Linear Part: Round 1
[0.0, -0.7500000000000304, 0.5000000000000142, 0.0, 0.0, 0.0, 0.0, -0.9375000000000089, 0.8750000000000071, 0.7500000000000044, 0.5000000000000011, 0.0, 0.0, 1.0, -1.0, -1.0][0.0, 0.7500000000000429, -0.5000000000000333, 0.0, -1.387778780781446e-17, 0.0, 0.0, 0.9375000000000142, -0.8750000000000001, -0.75000000000001, 0.5, 0.0, 0.0, 1.0, 1.0, 1.0]
Differential-Linear Part: Round 2
[0.0, -0.04279964768148264, 0.0, 0.0, 0.0, 0.0, 0.0, 0.0, -0.02779144048690872, -0.04836273193359576, 0.0, 0.0, 0.0, 0.0, 0.0, -0.8750000000000071][0.0, 0.0, 0.0, 0.0, 0.0, 0.0, 0.0, 0.0, 0.01389572024345436, 0.0, 0.0, 0.0, 0.0, 0.0, 0.0, 0.6562500000000429]
Linear Part: Round 0
[0, 0, 0, 0, 0, 0, 0, 0, 0, 0, 0, 0, 0, 0, 0, 0][0, 0, 0, 0, 0, 0, 0, 0, 0, 0, 0, 0, 0, 0, 0, 1]
Linear Part: Round 1
[0, 0, 0, 0, 0, 0, 0, 0, 0, 0, 0, 0, 0, 1, 0, 0][0, 0, 0, 0, 0, 0, 0, 0, 0, 0, 0, 0, 0, 1, 0, 0]
Linear Part: Round 2
[0, 0, 1, 0, 1, 1, 0, 0, 0, 0, 0, 1, 0, 0, 0, 0][0, 0, 1, 0, 0, 0, 0, 0, 0, 0, 0, 1, 0, 0, 0, 0]
Linear Part: Round 3
[0, 0, 1, 1, 0, 0, 0, 1, 0, 1, 1, 1, 0, 0, 0, 0][0, 0, 0, 0, 0, 0, 0, 1, 0, 0, 0, 0, 0, 0, 0, 0]

Differential Probability: 21
Differential-Linear Probability: 0.6562500000000455
Linear Probability: 4
Total Number of Rounds:9
Total Probability:-29.60768257722114
----------
%%%mzn-stat: objective=18.1772713927
%%%mzn-stat: objectiveBound=3.97499817727
%%%mzn-stat: nodes=29679
%%%mzn-stat: openNodes=16087
%%%mzn-stat: solveTime=2022.0081
%%%mzn-stat-end
Differential Part: Round 0
[0, 0, 1, 0, 0, 0, 0, 0, 0, 1, 0, 0, 0, 0, 1, 0][1, 0, 0, 0, 0, 0, 0, 1, 0, 1, 0, 0, 0, 0, 0, 0]
Differential Part: Round 1
[0, 0, 0, 0, 0, 1, 0, 1, 0, 0, 0, 0, 0, 0, 0, 0][0, 0, 0, 0, 0, 0, 0, 0, 0, 0, 0, 0, 0, 0, 1, 0]
Differential Part: Round 2
[0, 0, 0, 0, 0, 0, 0, 0, 0, 0, 0, 0, 1, 0, 0, 0][0, 0, 0, 0, 0, 0, 0, 0, 0, 0, 0, 0, 0, 0, 0, 0]
Differential Part: Round 3
[0, 0, 0, 1, 0, 0, 0, 0, 0, 0, 0, 0, 0, 0, 0, 0][0, 0, 0, 1, 0, 0, 0, 0, 0, 0, 0, 0, 0, 0, 0, 0]
Differential Part: Round 4
[0, 0, 0, 1, 0, 0, 0, 0, 0, 0, 1, 0, 0, 0, 0, 0][0, 1, 0, 1, 0, 0, 0, 0, 0, 0, 1, 0, 0, 0, 0, 0]
Differential-Linear Part: Round 0
[-1.0, -1.0, -1.0, 1.0, -1.0, -1.0, -1.0, -1.0, -1.0, -1.0, 1.0, -1.0, -1.0, -1.0, -1.0, -1.0][-1.0, 1.0, -1.0, 1.0, -1.0, -1.0, -1.0, -1.0, -1.0, -1.0, 1.0, -1.0, -1.0, -1.0, -1.0, -1.0]
Differential-Linear Part: Round 1
[0.2499999999563443, -0.5000000000873115, -3.492459654808044e-10, 0.984375, -0.96875, -0.9375, -0.875, -0.75, -0.5, 0.0, -1.0, -1.0, -1.0, -1.0, -1.0, -1.0][0.2499999999563443, 0.5000000000873115, -3.492459654808044e-10, 0.984375, -0.9687500009313226, -0.9375, -0.875, -0.75, 0.5, 0.0, -1.0, -1.0, -1.0, -1.0, -1.0, 1.0]
Differential-Linear Part: Round 2
[0.0, 0.1259064059163684, 0.0, 0.8429391951823112, -0.7167036287562342, -0.4944156773014752, -0.1094365485823745, 6.493036275318868e-05, 0.0004617269950979126, 1.720222004935722e-12, 0.8773081563414705, -0.7854242324831983, -0.6317138671879885, -0.3828125000009184, 0.0, 0.5][0.0, -0.1239391183239248, 0.0, 0.7902554954834156, -0.6271156751608608, -0.3708117579761038, 0.05471827429118258, 0.0, 0.0004617269950921275, 1.720222004935722e-12, 0.8773081563414705, -0.7854242324831983, -0.6317138671879885, 0.3828125000009184, 0.0, -0.2500000000436557]
Linear Part: Round 0
[0, 0, 0, 0, 0, 0, 0, 0, 0, 0, 1, 0, 0, 0, 0, 0][0, 0, 0, 0, 0, 0, 0, 0, 0, 0, 0, 0, 0, 0, 0, 0]
Linear Part: Round 1
[1, 1, 0, 0, 0, 0, 0, 0, 0, 0, 0, 0, 0, 0, 0, 1][1, 0, 0, 0, 0, 0, 0, 0, 0, 0, 0, 0, 0, 0, 0, 1]
Linear Part: Round 2
[0, 0, 0, 0, 1, 1, 0, 0, 1, 0, 0, 0, 0, 1, 1, 0][0, 0, 0, 0, 1, 1, 1, 0, 0, 0, 0, 0, 0, 1, 1, 0]
Linear Part: Round 3
[0, 0, 0, 0, 0, 1, 0, 0, 0, 1, 0, 0, 1, 1, 0, 1][0, 0, 0, 0, 1, 0, 0, 0, 0, 1, 0, 1, 1, 1, 0, 0]

Differential Probability: 8
Differential-Linear Probability: 0.8773081563414705
Linear Probability: 5
Total Number of Rounds:9
Total Probability:-18.18884441352014
----------
%%%mzn-stat: objective=14.8902583708
%%%mzn-stat: objectiveBound=6.37441605566
%%%mzn-stat: nodes=87990
%%%mzn-stat: openNodes=40896
%%%mzn-stat: solveTime=4234.7691
%%%mzn-stat-end
Differential Part: Round 0
[0, 0, 1, 0, 0, 0, 0, 0, 0, 1, 0, 0, 0, 0, 1, 0][1, 0, 0, 0, 0, 0, 0, 1, 0, 1, 0, 0, 0, 0, 0, 0]
Differential Part: Round 1
[0, 0, 0, 0, 0, 1, 0, 1, 0, 0, 0, 0, 0, 0, 0, 0][0, 0, 0, 0, 0, 0, 0, 0, 0, 0, 0, 0, 0, 0, 1, 0]
Differential Part: Round 2
[0, 0, 0, 0, 0, 0, 0, 0, 0, 0, 0, 0, 1, 0, 0, 0][0, 0, 0, 0, 0, 0, 0, 0, 0, 0, 0, 0, 0, 0, 0, 0]
Differential Part: Round 3
[0, 0, 0, 1, 0, 0, 0, 0, 0, 0, 0, 0, 0, 0, 0, 0][0, 0, 0, 1, 0, 0, 0, 0, 0, 0, 0, 0, 0, 0, 0, 0]
Differential Part: Round 4
[0, 1, 1, 1, 0, 0, 0, 0, 0, 0, 1, 0, 0, 0, 0, 0][0, 0, 1, 1, 0, 0, 0, 0, 0, 0, 1, 0, 0, 0, 0, 0]
Differential-Linear Part: Round 0
[-1.0, 1.0, 1.0, 1.0, -1.0, -1.0, -1.0, -1.0, -1.0, -1.0, 1.0, -1.0, -1.0, -1.0, -1.0, -1.0][-1.0, -1.0, 1.0, 1.0, -1.0, -1.0, -1.0, -1.0, -1.0, -1.0, 1.0, -1.0, -1.0, -1.0, -1.0, -1.0]
Differential-Linear Part: Round 1
[0.0, 0.0, 0.0, 0.9375, -0.875, -0.75, -0.5, 0.0, 0.0, 0.0, -1.0, -1.0, -1.0, -1.0, -1.0, -1.0][0.0, 0.0, 0.0, 0.9375, -0.875, -0.75, -0.5, 0.0, 0.0, 0.0, -1.0, -1.0, -1.0, -1.0, -1.0, -1.0]
Differential-Linear Part: Round 2
[0.0, 0.0, 0.0, 0.7038429695235863, -0.5264295570948445, -0.2813721934812791, -0.0002172328568000047, 0.0, 0.0, -3.475865612771425e-13, 0.7308483123795437, -0.5802001953144924, -0.3867187500063051, -0.1875000000110134, -2.273736781431496e-13, 0.0][0.0, 0.0, 0.0, 0.5278822271412877, -0.2632147785748383, -2.085811887963493e-12, 0.0, 0.0, 0.0, -3.475865612771425e-13, 0.7308483123795437, -0.5802001953144924, -0.3867187500063051, -0.1875000000110134, 0.0, 0.0]
Linear Part: Round 0
[0, 0, 0, 1, 0, 0, 0, 0, 0, 0, 0, 0, 0, 0, 0, 0][0, 0, 0, 0, 0, 0, 0, 0, 0, 0, 1, 0, 0, 0, 0, 0]
Linear Part: Round 1
[0, 0, 0, 0, 0, 0, 0, 0, 0, 0, 0, 0, 0, 0, 0, 0][0, 0, 0, 0, 0, 0, 0, 0, 0, 0, 1, 0, 0, 0, 0, 0]
Linear Part: Round 2
[0, 0, 0, 0, 0, 0, 0, 0, 1, 0, 0, 0, 0, 0, 0, 0][0, 0, 0, 0, 0, 0, 0, 0, 1, 0, 0, 0, 0, 0, 0, 0]
Linear Part: Round 3
[0, 0, 0, 0, 0, 0, 1, 0, 0, 0, 0, 0, 0, 1, 0, 1][0, 0, 0, 0, 0, 0, 1, 0, 0, 0, 0, 0, 0, 1, 0, 0]

Differential Probability: 10
Differential-Linear Probability: 0.5144024464653175
Linear Probability: 2
Total Number of Rounds:9
Total Probability:-14.95903059083933
----------
%%%mzn-stat: objective=14.333539075
%%%mzn-stat: objectiveBound=8.80848484848
%%%mzn-stat: nodes=360265
%%%mzn-stat: openNodes=99968
%%%mzn-stat: solveTime=15770.0794
%%%mzn-stat-end
Differential Part: Round 0
[1, 0, 0, 0, 1, 0, 0, 0, 0, 0, 0, 0, 0, 0, 1, 0][1, 0, 0, 0, 0, 0, 0, 1, 0, 1, 0, 1, 0, 0, 0, 0]
Differential Part: Round 1
[1, 0, 0, 0, 0, 1, 0, 0, 0, 1, 0, 0, 0, 0, 0, 0][1, 0, 0, 0, 0, 0, 0, 1, 0, 0, 0, 0, 0, 0, 1, 0]
Differential Part: Round 2
[0, 0, 0, 0, 0, 0, 0, 0, 0, 0, 0, 0, 1, 0, 1, 0][0, 0, 0, 0, 0, 1, 0, 0, 0, 0, 0, 0, 0, 0, 0, 0]
Differential Part: Round 3
[0, 0, 0, 1, 0, 0, 0, 0, 0, 0, 0, 0, 0, 0, 0, 0][0, 0, 0, 0, 0, 0, 0, 0, 0, 0, 0, 0, 0, 0, 0, 0]
Differential Part: Round 4
[0, 0, 0, 0, 0, 0, 0, 0, 0, 0, 1, 0, 0, 0, 0, 0][0, 0, 0, 0, 0, 0, 0, 0, 0, 0, 1, 0, 0, 0, 0, 0]
Differential-Linear Part: Round 0
[-1.0, -1.0, -1.0, -1.0, -1.0, -1.0, -1.0, -1.0, -1.0, -1.0, 1.0, -1.0, -1.0, -1.0, -1.0, -1.0][-1.0, -1.0, -1.0, -1.0, -1.0, -1.0, -1.0, -1.0, -1.0, -1.0, 1.0, -1.0, -1.0, -1.0, -1.0, -1.0]
Differential-Linear Part: Round 1
[0.0, 0.9960937500000073, -0.9921875000000093, -0.9843750000000107, -0.9687500000000062, -0.9375000000000054, -0.8750000000000056, -0.7500000000000053, -0.5000000000000016, 0.0, 1.0, -1.0, -1.0, -1.0, -1.0, -1.0][0.0, 0.9960937499999909, -0.9921875000000113, -0.9843750000000125, -0.9687500000000089, -0.9375000000000171, -0.8750000000000109, -0.7500000000000089, 0.5000000000000069, 0.0, 1.0, -1.0, -1.0, -1.0, -1.0, -1.0]
Differential-Linear Part: Round 2
[0.0, -0.9527491382085341, -0.913281472329791, -0.8420746975304885, -0.7149750691866636, -0.4909621569597672, -0.1025602058576087, 0.0, -0.1235039044405659, 0.0, 0.9134036907926596, -0.8575971126556667, -0.7759094238281414, -0.6699218750000098, -0.5625000000000056, -0.5000000000000016][0.0, -0.9378624329240377, -0.8847414263194932, -0.7894450289348474, -0.6256031855383385, -0.3682216177198298, 0.05128010292880505, 0.0, 0.1235039044405659, 0.0, 0.9134036907926596, -0.8575971126556667, -0.7759094238281414, -0.6699218750000098, 0.0, 0.498046874999997]
Linear Part: Round 0
[0, 0, 0, 1, 0, 0, 0, 0, 0, 0, 0, 0, 0, 0, 0, 0][0, 0, 0, 0, 0, 0, 0, 0, 0, 0, 1, 0, 0, 0, 0, 0]
Linear Part: Round 1
[0, 0, 0, 0, 0, 0, 0, 0, 0, 0, 0, 0, 0, 0, 0, 0][0, 0, 0, 0, 0, 0, 0, 0, 0, 0, 1, 0, 0, 0, 0, 0]
Linear Part: Round 2
[0, 0, 0, 0, 0, 0, 0, 0, 1, 0, 0, 0, 0, 0, 0, 0][0, 0, 0, 0, 0, 0, 0, 0, 1, 0, 0, 0, 0, 0, 0, 0]
Linear Part: Round 3
[0, 0, 0, 0, 0, 0, 1, 0, 0, 0, 0, 0, 0, 1, 0, 1][0, 0, 0, 0, 0, 0, 1, 0, 0, 0, 0, 0, 0, 1, 0, 0]

Differential Probability: 10
Differential-Linear Probability: 0.7691541366474659
Linear Probability: 2
Total Number of Rounds:9
Total Probability:-14.37865535509557
----------
%%%mzn-stat: objective=13.8658970563
%%%mzn-stat: objectiveBound=8.84091584666
%%%mzn-stat: nodes=365575
%%%mzn-stat: openNodes=98572
%%%mzn-stat: solveTime=16281.4106
%%%mzn-stat-end
Differential Part: Round 0
[1, 0, 1, 0, 1, 0, 0, 0, 0, 1, 0, 0, 0, 0, 0, 0][0, 0, 0, 0, 0, 0, 0, 0, 0, 0, 0, 1, 0, 0, 0, 0]
Differential Part: Round 1
[1, 0, 0, 0, 0, 0, 0, 1, 0, 1, 0, 0, 0, 0, 0, 0][1, 0, 0, 0, 0, 0, 0, 1, 0, 0, 0, 0, 0, 0, 0, 0]
Differential Part: Round 2
[0, 0, 0, 0, 0, 0, 0, 0, 0, 0, 0, 0, 0, 0, 1, 0][0, 0, 0, 0, 0, 1, 0, 0, 0, 0, 0, 0, 0, 0, 0, 0]
Differential Part: Round 3
[0, 0, 0, 0, 0, 0, 0, 0, 0, 0, 0, 0, 0, 0, 0, 0][0, 0, 0, 1, 0, 0, 0, 0, 0, 0, 0, 0, 0, 0, 0, 0]
Differential Part: Round 4
[0, 1, 1, 1, 0, 0, 0, 0, 0, 0, 0, 0, 0, 0, 0, 0][0, 0, 1, 1, 0, 0, 0, 0, 0, 0, 0, 0, 0, 0, 0, 0]
Differential-Linear Part: Round 0
[-1.0, 1.0, 1.0, 1.0, -1.0, -1.0, -1.0, -1.0, -1.0, -1.0, -1.0, -1.0, -1.0, -1.0, -1.0, -1.0][-1.0, -1.0, 1.0, 1.0, -1.0, -1.0, -1.0, -1.0, -1.0, -1.0, -1.0, -1.0, -1.0, -1.0, -1.0, -1.0]
Differential-Linear Part: Round 1
[-0.5, 0.0, 0.0, 0.9375, -0.875, -0.75, -0.5, 0.0, 0.0, 0.0, 1.0, -1.0, -1.0, -1.0, -1.0, -1.0][0.5, 0.0, 0.0, 0.9375, -0.875, -0.75, -0.5, 0.0, 0.0, 0.0, 1.0, -1.0, -1.0, -1.0, -1.0, -1.0]
Differential-Linear Part: Round 2
[0.0, 0.0, 0.0, 0.7127035883826238, -0.5440720337574021, -0.3159370457287878, -0.0616658590734005, 0.0, 0.0, 0.0, -0.7308483123779297, -0.5802001953125, -0.38671875, -0.1875, 0.0, 0.0][0.0, 0.0, 0.0, 0.5345276912869679, -0.272036016878701, 0.0, 0.0, 0.0, 0.0, 0.0, -0.7308483123779297, -0.5802001953125, -0.38671875, -0.1875, 0.0, 0.0]
Linear Part: Round 0
[0, 0, 0, 1, 0, 0, 0, 0, 0, 0, 0, 0, 0, 0, 0, 0][0, 0, 0, 0, 0, 0, 0, 0, 0, 0, 1, 0, 0, 0, 0, 0]
Linear Part: Round 1
[0, 0, 0, 0, 0, 0, 0, 0, 0, 0, 0, 0, 0, 0, 0, 0][0, 0, 0, 0, 0, 0, 0, 0, 0, 0, 1, 0, 0, 0, 0, 0]
Linear Part: Round 2
[0, 0, 0, 0, 0, 0, 0, 0, 1, 0, 0, 0, 0, 0, 0, 0][0, 0, 0, 0, 0, 0, 0, 0, 1, 0, 0, 0, 0, 0, 0, 0]
Linear Part: Round 3
[0, 0, 0, 0, 0, 0, 1, 0, 0, 0, 0, 0, 0, 1, 0, 1][0, 0, 0, 0, 0, 0, 1, 0, 0, 0, 0, 0, 0, 1, 0, 0]

Differential Probability: 9
Differential-Linear Probability: 0.5208782147951353
Linear Probability: 2
Total Number of Rounds:9
Total Probability:-13.94098199579887
----------
%%%mzn-stat: objective=13.5321213599
%%%mzn-stat: objectiveBound=9.00113154
%%%mzn-stat: nodes=677695
%%%mzn-stat: openNodes=166411
%%%mzn-stat: solveTime=33199.5697
%%%mzn-stat-end
Differential Part: Round 0
[1, 0, 1, 0, 1, 0, 0, 0, 0, 1, 0, 0, 0, 0, 0, 0][0, 0, 0, 0, 0, 0, 0, 0, 0, 0, 0, 1, 0, 0, 0, 0]
Differential Part: Round 1
[1, 0, 0, 0, 0, 0, 0, 1, 0, 1, 0, 0, 0, 0, 0, 0][1, 0, 0, 0, 0, 0, 0, 1, 0, 0, 0, 0, 0, 0, 0, 0]
Differential Part: Round 2
[0, 0, 0, 0, 0, 0, 0, 0, 0, 0, 0, 0, 0, 0, 1, 0][0, 0, 0, 0, 0, 1, 0, 0, 0, 0, 0, 0, 0, 0, 0, 0]
Differential Part: Round 3
[0, 0, 0, 0, 0, 0, 0, 0, 0, 0, 0, 0, 0, 0, 0, 0][0, 0, 0, 1, 0, 0, 0, 0, 0, 0, 0, 0, 0, 0, 0, 0]
Differential Part: Round 4
[0, 0, 0, 1, 0, 0, 0, 0, 0, 0, 0, 0, 0, 0, 0, 0][0, 1, 0, 1, 0, 0, 0, 0, 0, 0, 0, 0, 0, 0, 0, 0]
Differential-Linear Part: Round 0
[-1.0, -1.0, -1.0, 1.0, -1.0, -1.0, -1.0, -1.0, -1.0, -1.0, -1.0, -1.0, -1.0, -1.0, -1.0, -1.0][-1.0, 1.0, -1.0, 1.0, -1.0, -1.0, -1.0, -1.0, -1.0, -1.0, -1.0, -1.0, -1.0, -1.0, -1.0, -1.0]
Differential-Linear Part: Round 1
[0.0, 0.5, 0.0, 0.984375, -0.9687500000000002, -0.9375, -0.875, -0.75, -0.5, 0.0, 1.0, -1.0, -1.0, -1.0, -1.0, -1.0][0.0, -0.5, 0.0, 0.984375, -0.9687500000000002, -0.9375, -0.875, -0.75, -0.5, 0.0, 1.0, -1.0, -1.0, -1.0, -1.0, 1.0]
Differential-Linear Part: Round 2
[0.0, 0.1259097778956905, 0.0, 0.8497372377120496, -0.7302962883554613, -0.5215727093053957, -0.1635092167502989, 0.0, -0.003372393141034991, 0.0, -0.8773081563413143, -0.7854242324829104, -0.6317138671875, -0.3828125, 0.0, 0.5][0.0, -0.1239424376160703, 0.0, 0.7966286603550464, -0.6390092523110286, -0.3911795319790468, -0.08175460837514947, 0.0, 0.003372393141034991, 0.0, -0.8773081563413143, -0.7854242324829104, -0.6317138671875, 0.3828125, 0.0, 0.25]
Linear Part: Round 0
[0, 0, 0, 0, 0, 0, 0, 0, 0, 0, 0, 0, 0, 0, 0, 0][0, 0, 0, 0, 0, 0, 0, 0, 0, 0, 0, 0, 1, 0, 0, 0]
Linear Part: Round 1
[0, 0, 0, 0, 0, 0, 0, 0, 0, 0, 1, 0, 0, 0, 0, 0][0, 0, 0, 0, 0, 0, 0, 0, 0, 0, 1, 0, 0, 0, 0, 0]
Linear Part: Round 2
[1, 1, 0, 0, 0, 0, 0, 0, 1, 0, 0, 0, 0, 0, 0, 1][1, 0, 0, 0, 0, 0, 0, 0, 1, 0, 0, 0, 0, 0, 0, 1]
Linear Part: Round 3
[0, 0, 0, 0, 1, 0, 1, 0, 1, 1, 0, 0, 0, 0, 1, 1][0, 0, 0, 0, 1, 0, 0, 0, 0, 0, 0, 0, 0, 0, 1, 0]

Differential Probability: 7
Differential-Linear Probability: 0.6317138671875
Linear Probability: 3
Total Number of Rounds:9
Total Probability:-13.66265685272595
----------
%%%mzn-stat: objective=13.338638192
%%%mzn-stat: objectiveBound=9.00288827788
%%%mzn-stat: nodes=712849
%%%mzn-stat: openNodes=168494
%%%mzn-stat: solveTime=34767.6854
%%%mzn-stat-end
Differential Part: Round 0
[0, 0, 1, 0, 1, 0, 0, 0, 0, 0, 0, 0, 0, 0, 0, 0][0, 0, 0, 0, 0, 0, 0, 0, 0, 0, 0, 1, 0, 0, 0, 0]
Differential Part: Round 1
[0, 0, 0, 0, 0, 0, 0, 0, 0, 1, 0, 0, 0, 0, 0, 0][0, 0, 0, 0, 0, 0, 0, 0, 0, 0, 0, 0, 0, 0, 0, 0]
Differential Part: Round 2
[1, 0, 0, 0, 0, 0, 0, 0, 0, 0, 0, 0, 0, 0, 0, 0][1, 0, 0, 0, 0, 0, 0, 0, 0, 0, 0, 0, 0, 0, 0, 0]
Differential Part: Round 3
[1, 0, 0, 0, 0, 0, 0, 1, 0, 0, 0, 0, 0, 0, 0, 0][1, 0, 0, 0, 0, 0, 0, 1, 0, 0, 0, 0, 0, 0, 1, 0]
Differential Part: Round 4
[1, 0, 0, 0, 0, 0, 0, 0, 0, 0, 0, 0, 0, 0, 0, 0][1, 0, 0, 0, 0, 1, 0, 0, 0, 0, 0, 0, 1, 0, 1, 0]
Differential-Linear Part: Round 0
[1.0, -1.0, -1.0, -1.0, -1.0, -1.0, -1.0, -1.0, -1.0, -1.0, -1.0, -1.0, -1.0, -1.0, -1.0, -1.0][1.0, -1.0, -1.0, -1.0, -1.0, 1.0, -1.0, -1.0, -1.0, -1.0, -1.0, -1.0, 1.0, -1.0, 1.0, -1.0]
Differential-Linear Part: Round 1
[0.9375000000000139, -0.8750000000000151, -0.7500000000000144, -0.5000000000000133, 0.0, 0.4999999999999944, 0.0, 0.9375000000000095, -0.8750000000000105, -0.7499999999999951, -0.4999999999999984, 0.0, 0.5000000000000021, 0.0, 1.0, -1.0][0.9375000000000199, -0.8750000000000216, -0.7500000000000199, 0.5000000000000007, 0.0, 0.4999999999999861, 0.0, 0.9375000000000145, -0.8750000000000132, -0.750000000000004, 0.5000000000000036, 0.0, -0.5000000000000056, 0.0, -1.0, -1.0]
Differential-Linear Part: Round 2
[0.2718110477846904, -0.0521356498842054, 0.0, 0.01866496084697849, 0.0, -0.101814168597677, 0.0, -0.5300145819192298, -0.2871292689233689, -3.741681578368211e-05, 8.86917114348712e-05, 0.0, 0.001892089843746877, 0.0, 0.8789062500000158, -0.8750000000000105][0.2038582858385232, 0.02606782494210273, 0.0, -0.009332480423488986, 0.0, 0.0954507830603237, 0.0, -0.3975109364394245, 0.1435646344616855, 0.0, 4.43458557174356e-05, 0.0, 0.001892089843746877, 0.0, -0.8239746093750322, -0.7656250000000282]
Linear Part: Round 0
[0, 0, 0, 0, 0, 0, 0, 0, 0, 0, 0, 0, 0, 0, 0, 0][0, 0, 0, 0, 0, 0, 0, 0, 0, 0, 0, 0, 0, 0, 0, 1]
Linear Part: Round 1
[0, 0, 0, 0, 0, 0, 0, 0, 0, 0, 0, 0, 0, 1, 0, 0][0, 0, 0, 0, 0, 0, 0, 0, 0, 0, 0, 0, 0, 1, 0, 0]
Linear Part: Round 2
[0, 0, 1, 1, 1, 0, 0, 0, 0, 0, 0, 1, 0, 0, 0, 0][0, 0, 1, 1, 0, 0, 0, 0, 0, 0, 0, 1, 0, 0, 0, 0]
Linear Part: Round 3
[0, 0, 1, 0, 0, 0, 0, 1, 0, 0, 1, 0, 0, 0, 0, 0][0, 0, 0, 0, 0, 0, 0, 1, 0, 1, 0, 0, 0, 0, 0, 0]

Differential Probability: 5
Differential-Linear Probability: 0.7656250000000397
Linear Probability: 4
Total Number of Rounds:9
Total Probability:-13.38529015588472
----------
%%%mzn-stat: objective=11.3677429098
%%%mzn-stat: objectiveBound=9.04317327345
%%%mzn-stat: nodes=947097
%%%mzn-stat: openNodes=189455
%%%mzn-stat: solveTime=47018.3553
%%%mzn-stat-end
Differential Part: Round 0
[1, 0, 1, 0, 1, 0, 0, 0, 0, 1, 0, 0, 0, 0, 0, 0][0, 0, 0, 0, 0, 0, 0, 0, 0, 0, 0, 1, 0, 0, 0, 0]
Differential Part: Round 1
[1, 0, 0, 0, 0, 0, 0, 1, 0, 1, 0, 0, 0, 0, 0, 0][1, 0, 0, 0, 0, 0, 0, 1, 0, 0, 0, 0, 0, 0, 0, 0]
Differential Part: Round 2
[0, 0, 0, 0, 0, 0, 0, 0, 0, 0, 0, 0, 0, 0, 1, 0][0, 0, 0, 0, 0, 1, 0, 0, 0, 0, 0, 0, 0, 0, 0, 0]
Differential Part: Round 3
[0, 0, 0, 0, 0, 0, 0, 0, 0, 0, 0, 0, 0, 0, 0, 0][0, 0, 0, 1, 0, 0, 0, 0, 0, 0, 0, 0, 0, 0, 0, 0]
Differential Part: Round 4
[0, 0, 0, 1, 0, 0, 0, 0, 0, 0, 0, 0, 0, 0, 0, 0][0, 1, 0, 1, 0, 0, 0, 0, 0, 0, 0, 0, 0, 0, 0, 0]
Differential-Linear Part: Round 0
[-1.0, -1.0, -1.0, 1.0, -1.0, -1.0, -1.0, -1.0, -1.0, -1.0, -1.0, -1.0, -1.0, -1.0, -1.0, -1.0][-1.0, 1.0, -1.0, 1.0, -1.0, -1.0, -1.0, -1.0, -1.0, -1.0, -1.0, -1.0, -1.0, -1.0, -1.0, -1.0]
Differential-Linear Part: Round 1
[0.0, 0.4999999995925465, 0.0, 0.984375, -0.96875, -0.9375, -0.875, -0.75, -0.5, 0.0, 1.0, -1.0, -1.0, -1.0, -1.0, -1.0][0.0, -0.4999999995925465, 0.0, 0.984375, -0.96875, -0.9375, -0.875, -0.75, -0.5, 0.0, 1.0, -1.0, -1.0, -1.0, -1.0, 1.0]
Differential-Linear Part: Round 2
[0.0, 0.1259097777932929, 0.0, 0.8497372377150068, -0.7302962883613604, -0.5215727093171821, -0.1635092167737674, 0.0, -0.00337239313014933, -1.302238109535964e-10, -0.8773081563413784, -0.7854242324829916, -0.6317138671875063, -0.3828125000000001, 0.0, 0.5][0.0, -0.1239424375152722, 0.0, 0.7966286603578234, -0.6390092523161905, -0.3911795319878871, -0.08175460838688491, 0.0, 0.003372393130137332, -2.604474976638425e-10, -0.8773081563413784, -0.7854242324829916, -0.6317138671875063, 0.3828125000000001, 0.0, 0.2499999997962679]
Linear Part: Round 0
[0, 0, 0, 1, 0, 0, 0, 0, 0, 0, 0, 0, 0, 0, 0, 0][0, 0, 0, 0, 0, 0, 0, 0, 0, 0, 1, 0, 0, 0, 0, 0]
Linear Part: Round 1
[0, 0, 0, 0, 0, 0, 0, 0, 0, 0, 0, 0, 0, 0, 0, 0][0, 0, 0, 0, 0, 0, 0, 0, 0, 0, 1, 0, 0, 0, 0, 0]
Linear Part: Round 2
[0, 0, 0, 0, 0, 0, 0, 0, 1, 0, 0, 0, 0, 0, 0, 0][0, 0, 0, 0, 0, 0, 0, 0, 1, 0, 0, 0, 0, 0, 0, 0]
Linear Part: Round 3
[0, 0, 0, 0, 0, 0, 1, 0, 0, 0, 0, 0, 0, 1, 0, 1][0, 0, 0, 0, 0, 0, 1, 0, 0, 0, 0, 0, 0, 1, 0, 0]

Differential Probability: 7
Differential-Linear Probability: 0.7454814093954865
Linear Probability: 2
Total Number of Rounds:9
Total Probability:-11.42375571945089
----------
==========
%%%mzn-stat: objective=11.3677429098
%%%mzn-stat: objectiveBound=11.3677429098
%%%mzn-stat: nodes=81160298
%%%mzn-stat: solveTime=4221613.2289
%%%mzn-stat-end
%%%mzn-stat: nSolutions=11
%%%mzn-stat-end
